c File: flat50_3_0.col
c
c SOURCE: Joseph Culberson (joe@cs.ualberta.ca)
c DESCRIPTION: Quasi-random coloring problem
c              generated with flatness = 0
c                             probability = 0.139
c                             known coloring = 3
c                             random seed = 1265
c              Creation Date:  Tue Jun  9 12:05:08 1998
c Maximum degree = 8 Minimum degree = 2
c p edge 50 115
c cnf created by edge2cnf
p cnf 150 545
-1 -2 0
-1 -3 0
-2 -3 0
1 2 3 0
-4 -5 0
-4 -6 0
-5 -6 0
4 5 6 0
-7 -8 0
-7 -9 0
-8 -9 0
7 8 9 0
-10 -11 0
-10 -12 0
-11 -12 0
10 11 12 0
-13 -14 0
-13 -15 0
-14 -15 0
13 14 15 0
-16 -17 0
-16 -18 0
-17 -18 0
16 17 18 0
-19 -20 0
-19 -21 0
-20 -21 0
19 20 21 0
-22 -23 0
-22 -24 0
-23 -24 0
22 23 24 0
-25 -26 0
-25 -27 0
-26 -27 0
25 26 27 0
-28 -29 0
-28 -30 0
-29 -30 0
28 29 30 0
-31 -32 0
-31 -33 0
-32 -33 0
31 32 33 0
-34 -35 0
-34 -36 0
-35 -36 0
34 35 36 0
-37 -38 0
-37 -39 0
-38 -39 0
37 38 39 0
-40 -41 0
-40 -42 0
-41 -42 0
40 41 42 0
-43 -44 0
-43 -45 0
-44 -45 0
43 44 45 0
-46 -47 0
-46 -48 0
-47 -48 0
46 47 48 0
-49 -50 0
-49 -51 0
-50 -51 0
49 50 51 0
-52 -53 0
-52 -54 0
-53 -54 0
52 53 54 0
-55 -56 0
-55 -57 0
-56 -57 0
55 56 57 0
-58 -59 0
-58 -60 0
-59 -60 0
58 59 60 0
-61 -62 0
-61 -63 0
-62 -63 0
61 62 63 0
-64 -65 0
-64 -66 0
-65 -66 0
64 65 66 0
-67 -68 0
-67 -69 0
-68 -69 0
67 68 69 0
-70 -71 0
-70 -72 0
-71 -72 0
70 71 72 0
-73 -74 0
-73 -75 0
-74 -75 0
73 74 75 0
-76 -77 0
-76 -78 0
-77 -78 0
76 77 78 0
-79 -80 0
-79 -81 0
-80 -81 0
79 80 81 0
-82 -83 0
-82 -84 0
-83 -84 0
82 83 84 0
-85 -86 0
-85 -87 0
-86 -87 0
85 86 87 0
-88 -89 0
-88 -90 0
-89 -90 0
88 89 90 0
-91 -92 0
-91 -93 0
-92 -93 0
91 92 93 0
-94 -95 0
-94 -96 0
-95 -96 0
94 95 96 0
-97 -98 0
-97 -99 0
-98 -99 0
97 98 99 0
-100 -101 0
-100 -102 0
-101 -102 0
100 101 102 0
-103 -104 0
-103 -105 0
-104 -105 0
103 104 105 0
-106 -107 0
-106 -108 0
-107 -108 0
106 107 108 0
-109 -110 0
-109 -111 0
-110 -111 0
109 110 111 0
-112 -113 0
-112 -114 0
-113 -114 0
112 113 114 0
-115 -116 0
-115 -117 0
-116 -117 0
115 116 117 0
-118 -119 0
-118 -120 0
-119 -120 0
118 119 120 0
-121 -122 0
-121 -123 0
-122 -123 0
121 122 123 0
-124 -125 0
-124 -126 0
-125 -126 0
124 125 126 0
-127 -128 0
-127 -129 0
-128 -129 0
127 128 129 0
-130 -131 0
-130 -132 0
-131 -132 0
130 131 132 0
-133 -134 0
-133 -135 0
-134 -135 0
133 134 135 0
-136 -137 0
-136 -138 0
-137 -138 0
136 137 138 0
-139 -140 0
-139 -141 0
-140 -141 0
139 140 141 0
-142 -143 0
-142 -144 0
-143 -144 0
142 143 144 0
-145 -146 0
-145 -147 0
-146 -147 0
145 146 147 0
-148 -149 0
-148 -150 0
-149 -150 0
148 149 150 0
-58 -1 0
-59 -2 0
-60 -3 0
-88 -1 0
-89 -2 0
-90 -3 0
-103 -1 0
-104 -2 0
-105 -3 0
-88 -4 0
-89 -5 0
-90 -6 0
-103 -4 0
-104 -5 0
-105 -6 0
-115 -4 0
-116 -5 0
-117 -6 0
-130 -4 0
-131 -5 0
-132 -6 0
-148 -4 0
-149 -5 0
-150 -6 0
-76 -7 0
-77 -8 0
-78 -9 0
-136 -7 0
-137 -8 0
-138 -9 0
-148 -7 0
-149 -8 0
-150 -9 0
-109 -10 0
-110 -11 0
-111 -12 0
-124 -10 0
-125 -11 0
-126 -12 0
-127 -10 0
-128 -11 0
-129 -12 0
-145 -10 0
-146 -11 0
-147 -12 0
-55 -13 0
-56 -14 0
-57 -15 0
-64 -13 0
-65 -14 0
-66 -15 0
-76 -13 0
-77 -14 0
-78 -15 0
-100 -13 0
-101 -14 0
-102 -15 0
-103 -13 0
-104 -14 0
-105 -15 0
-124 -13 0
-125 -14 0
-126 -15 0
-127 -13 0
-128 -14 0
-129 -15 0
-145 -13 0
-146 -14 0
-147 -15 0
-67 -16 0
-68 -17 0
-69 -18 0
-79 -16 0
-80 -17 0
-81 -18 0
-82 -16 0
-83 -17 0
-84 -18 0
-97 -16 0
-98 -17 0
-99 -18 0
-58 -19 0
-59 -20 0
-60 -21 0
-70 -19 0
-71 -20 0
-72 -21 0
-79 -19 0
-80 -20 0
-81 -21 0
-115 -19 0
-116 -20 0
-117 -21 0
-121 -19 0
-122 -20 0
-123 -21 0
-142 -19 0
-143 -20 0
-144 -21 0
-52 -22 0
-53 -23 0
-54 -24 0
-85 -22 0
-86 -23 0
-87 -24 0
-88 -22 0
-89 -23 0
-90 -24 0
-97 -22 0
-98 -23 0
-99 -24 0
-118 -22 0
-119 -23 0
-120 -24 0
-76 -25 0
-77 -26 0
-78 -27 0
-88 -25 0
-89 -26 0
-90 -27 0
-94 -28 0
-95 -29 0
-96 -30 0
-139 -28 0
-140 -29 0
-141 -30 0
-55 -31 0
-56 -32 0
-57 -33 0
-67 -31 0
-68 -32 0
-69 -33 0
-85 -31 0
-86 -32 0
-87 -33 0
-109 -31 0
-110 -32 0
-111 -33 0
-124 -31 0
-125 -32 0
-126 -33 0
-145 -31 0
-146 -32 0
-147 -33 0
-64 -34 0
-65 -35 0
-66 -36 0
-67 -34 0
-68 -35 0
-69 -36 0
-82 -34 0
-83 -35 0
-84 -36 0
-100 -34 0
-101 -35 0
-102 -36 0
-112 -34 0
-113 -35 0
-114 -36 0
-127 -34 0
-128 -35 0
-129 -36 0
-136 -34 0
-137 -35 0
-138 -36 0
-145 -34 0
-146 -35 0
-147 -36 0
-79 -37 0
-80 -38 0
-81 -39 0
-94 -37 0
-95 -38 0
-96 -39 0
-106 -37 0
-107 -38 0
-108 -39 0
-112 -37 0
-113 -38 0
-114 -39 0
-124 -37 0
-125 -38 0
-126 -39 0
-148 -37 0
-149 -38 0
-150 -39 0
-67 -40 0
-68 -41 0
-69 -42 0
-70 -40 0
-71 -41 0
-72 -42 0
-73 -40 0
-74 -41 0
-75 -42 0
-100 -40 0
-101 -41 0
-102 -42 0
-121 -40 0
-122 -41 0
-123 -42 0
-127 -40 0
-128 -41 0
-129 -42 0
-130 -40 0
-131 -41 0
-132 -42 0
-97 -43 0
-98 -44 0
-99 -45 0
-118 -43 0
-119 -44 0
-120 -45 0
-136 -43 0
-137 -44 0
-138 -45 0
-70 -46 0
-71 -47 0
-72 -48 0
-82 -46 0
-83 -47 0
-84 -48 0
-73 -49 0
-74 -50 0
-75 -51 0
-82 -49 0
-83 -50 0
-84 -51 0
-103 -49 0
-104 -50 0
-105 -51 0
-121 -52 0
-122 -53 0
-123 -54 0
-127 -52 0
-128 -53 0
-129 -54 0
-103 -55 0
-104 -56 0
-105 -57 0
-124 -55 0
-125 -56 0
-126 -57 0
-118 -58 0
-119 -59 0
-120 -60 0
-133 -58 0
-134 -59 0
-135 -60 0
-139 -58 0
-140 -59 0
-141 -60 0
-118 -61 0
-119 -62 0
-120 -63 0
-121 -61 0
-122 -62 0
-123 -63 0
-127 -61 0
-128 -62 0
-129 -63 0
-109 -64 0
-110 -65 0
-111 -66 0
-121 -64 0
-122 -65 0
-123 -66 0
-106 -67 0
-107 -68 0
-108 -69 0
-127 -67 0
-128 -68 0
-129 -69 0
-118 -70 0
-119 -71 0
-120 -72 0
-139 -70 0
-140 -71 0
-141 -72 0
-142 -70 0
-143 -71 0
-144 -72 0
-145 -70 0
-146 -71 0
-147 -72 0
-121 -73 0
-122 -74 0
-123 -75 0
-124 -73 0
-125 -74 0
-126 -75 0
-139 -73 0
-140 -74 0
-141 -75 0
-109 -76 0
-110 -77 0
-111 -78 0
-130 -76 0
-131 -77 0
-132 -78 0
-136 -82 0
-137 -83 0
-138 -84 0
-148 -82 0
-149 -83 0
-150 -84 0
-133 -85 0
-134 -86 0
-135 -87 0
-136 -85 0
-137 -86 0
-138 -87 0
-130 -88 0
-131 -89 0
-132 -90 0
-118 -91 0
-119 -92 0
-120 -93 0
-142 -91 0
-143 -92 0
-144 -93 0
-112 -94 0
-113 -95 0
-114 -96 0
-130 -94 0
-131 -95 0
-132 -96 0
-109 -97 0
-110 -98 0
-111 -99 0
-127 -97 0
-128 -98 0
-129 -99 0
-136 -97 0
-137 -98 0
-138 -99 0
-109 -100 0
-110 -101 0
-111 -102 0
-115 -100 0
-116 -101 0
-117 -102 0
-139 -100 0
-140 -101 0
-141 -102 0
